40
1 0 19
2 0 2
2 1 2
3 0 12
3 1 18
3 2 16
4 0 5
4 1 20
4 2 16
4 3 16
5 0 5
5 1 19
5 2 16
5 3 17
5 4 12
6 0 13
6 1 9
6 2 8
6 3 6
6 4 4
6 5 4
7 0 18
7 1 14
7 2 16
7 3 3
7 4 5
7 5 10
7 6 9
8 0 18
8 1 15
8 2 13
8 3 10
8 4 20
8 5 7
8 6 6
8 7 7
9 0 11
9 1 18
9 2 4
9 3 12
9 4 3
9 5 9
9 6 14
9 7 8
9 8 4
10 0 17
10 1 14
10 2 10
10 3 16
10 4 14
10 5 4
10 6 11
10 7 14
10 8 10
10 9 19
11 0 19
11 1 12
11 2 4
11 3 10
11 4 5
11 5 6
11 6 16
11 7 1
11 8 5
11 9 15
11 10 9
12 0 19
12 1 2
12 2 10
12 3 7
12 4 1
12 5 18
12 6 6
12 7 12
12 8 4
12 9 19
12 10 17
12 11 4
13 0 12
13 1 12
13 2 9
13 3 9
13 4 1
13 5 2
13 6 13
13 7 8
13 8 10
13 9 13
13 10 15
13 11 10
13 12 14
14 0 11
14 1 5
14 2 5
14 3 16
14 4 8
14 5 11
14 6 9
14 7 10
14 8 5
14 9 2
14 10 19
14 11 9
14 12 15
14 13 3
15 0 2
15 1 9
15 2 20
15 3 18
15 4 16
15 5 2
15 6 9
15 7 5
15 8 6
15 9 14
15 10 12
15 11 17
15 12 5
15 13 10
15 14 16
16 0 6
16 1 14
16 2 19
16 3 18
16 4 13
16 5 4
16 6 5
16 7 3
16 8 18
16 9 6
16 10 5
16 11 16
16 12 1
16 13 5
16 14 14
16 15 7
17 0 3
17 1 15
17 2 17
17 3 20
17 4 9
17 5 20
17 6 14
17 7 11
17 8 3
17 9 19
17 10 5
17 11 3
17 12 4
17 13 11
17 14 4
17 15 1
17 16 7
18 0 8
18 1 5
18 2 9
18 3 8
18 4 5
18 5 19
18 6 12
18 7 3
18 8 19
18 9 8
18 10 13
18 11 18
18 12 17
18 13 15
18 14 6
18 15 3
18 16 15
18 17 5
19 0 13
19 1 14
19 2 15
19 3 14
19 4 16
19 5 19
19 6 7
19 7 2
19 8 9
19 9 10
19 10 5
19 11 17
19 12 9
19 13 9
19 14 17
19 15 13
19 16 7
19 17 7
19 18 18
20 0 15
20 1 16
20 2 9
20 3 2
20 4 16
20 5 5
20 6 4
20 7 1
20 8 17
20 9 5
20 10 5
20 11 16
20 12 20
20 13 12
20 14 14
20 15 5
20 16 5
20 17 17
20 18 4
20 19 10
21 0 17
21 1 7
21 2 8
21 3 19
21 4 12
21 5 12
21 6 5
21 7 1
21 8 19
21 9 7
21 10 7
21 11 1
21 12 12
21 13 10
21 14 14
21 15 8
21 16 1
21 17 15
21 18 6
21 19 19
21 20 16
22 0 5
22 1 15
22 2 18
22 3 15
22 4 8
22 5 7
22 6 3
22 7 18
22 8 15
22 9 2
22 10 8
22 11 4
22 12 7
22 13 11
22 14 7
22 15 8
22 16 5
22 17 14
22 18 8
22 19 19
22 20 20
22 21 16
23 0 6
23 1 10
23 2 5
23 3 10
23 4 20
23 5 3
23 6 13
23 7 7
23 8 1
23 9 10
23 10 20
23 11 2
23 12 9
23 13 10
23 14 8
23 15 5
23 16 3
23 17 16
23 18 19
23 19 9
23 20 15
23 21 15
23 22 13
24 0 1
24 1 17
24 2 20
24 3 10
24 4 14
24 5 20
24 6 1
24 7 2
24 8 18
24 9 8
24 10 8
24 11 18
24 12 17
24 13 16
24 14 12
24 15 19
24 16 3
24 17 12
24 18 2
24 19 11
24 20 15
24 21 17
24 22 7
24 23 16
25 0 13
25 1 4
25 2 10
25 3 3
25 4 13
25 5 7
25 6 2
25 7 20
25 8 15
25 9 14
25 10 14
25 11 10
25 12 4
25 13 3
25 14 5
25 15 4
25 16 10
25 17 13
25 18 3
25 19 3
25 20 7
25 21 18
25 22 3
25 23 16
25 24 1
26 0 18
26 1 18
26 2 7
26 3 1
26 4 16
26 5 10
26 6 6
26 7 6
26 8 20
26 9 15
26 10 6
26 11 6
26 12 5
26 13 11
26 14 14
26 15 20
26 16 9
26 17 7
26 18 13
26 19 20
26 20 12
26 21 3
26 22 18
26 23 15
26 24 8
26 25 7
27 0 15
27 1 16
27 2 3
27 3 20
27 4 14
27 5 15
27 6 1
27 7 2
27 8 20
27 9 4
27 10 15
27 11 1
27 12 6
27 13 8
27 14 11
27 15 13
27 16 8
27 17 10
27 18 12
27 19 4
27 20 8
27 21 10
27 22 11
27 23 6
27 24 18
27 25 12
27 26 20
28 0 14
28 1 7
28 2 7
28 3 4
28 4 3
28 5 2
28 6 7
28 7 7
28 8 7
28 9 1
28 10 10
28 11 17
28 12 16
28 13 9
28 14 3
28 15 7
28 16 2
28 17 9
28 18 11
28 19 5
28 20 8
28 21 9
28 22 8
28 23 11
28 24 13
28 25 2
28 26 7
28 27 12
29 0 3
29 1 11
29 2 7
29 3 10
29 4 5
29 5 9
29 6 4
29 7 11
29 8 10
29 9 8
29 10 6
29 11 15
29 12 9
29 13 10
29 14 14
29 15 13
29 16 18
29 17 8
29 18 9
29 19 12
29 20 9
29 21 20
29 22 11
29 23 12
29 24 3
29 25 6
29 26 8
29 27 20
29 28 2
30 0 19
30 1 18
30 2 13
30 3 18
30 4 4
30 5 2
30 6 17
30 7 7
30 8 13
30 9 11
30 10 20
30 11 12
30 12 7
30 13 19
30 14 10
30 15 13
30 16 8
30 17 1
30 18 11
30 19 2
30 20 17
30 21 3
30 22 14
30 23 14
30 24 4
30 25 7
30 26 9
30 27 1
30 28 17
30 29 16
31 0 19
31 1 4
31 2 5
31 3 9
31 4 17
31 5 11
31 6 9
31 7 2
31 8 2
31 9 15
31 10 19
31 11 11
31 12 15
31 13 4
31 14 7
31 15 15
31 16 20
31 17 1
31 18 2
31 19 3
31 20 15
31 21 11
31 22 7
31 23 19
31 24 2
31 25 18
31 26 14
31 27 1
31 28 8
31 29 2
31 30 8
32 0 19
32 1 17
32 2 15
32 3 6
32 4 12
32 5 15
32 6 5
32 7 4
32 8 4
32 9 15
32 10 4
32 11 11
32 12 11
32 13 19
32 14 5
32 15 20
32 16 16
32 17 6
32 18 11
32 19 9
32 20 17
32 21 4
32 22 2
32 23 11
32 24 13
32 25 1
32 26 15
32 27 1
32 28 11
32 29 5
32 30 20
32 31 3
33 0 18
33 1 20
33 2 1
33 3 8
33 4 15
33 5 13
33 6 3
33 7 3
33 8 9
33 9 6
33 10 10
33 11 1
33 12 16
33 13 4
33 14 20
33 15 10
33 16 4
33 17 11
33 18 18
33 19 4
33 20 13
33 21 15
33 22 19
33 23 9
33 24 10
33 25 18
33 26 5
33 27 20
33 28 16
33 29 10
33 30 3
33 31 12
33 32 12
34 0 18
34 1 6
34 2 11
34 3 2
34 4 20
34 5 4
34 6 2
34 7 3
34 8 14
34 9 3
34 10 3
34 11 5
34 12 18
34 13 14
34 14 20
34 15 12
34 16 8
34 17 4
34 18 7
34 19 20
34 20 12
34 21 11
34 22 19
34 23 17
34 24 13
34 25 17
34 26 17
34 27 10
34 28 11
34 29 10
34 30 18
34 31 10
34 32 17
34 33 18
35 0 13
35 1 16
35 2 1
35 3 5
35 4 6
35 5 13
35 6 12
35 7 13
35 8 17
35 9 14
35 10 12
35 11 14
35 12 20
35 13 7
35 14 7
35 15 4
35 16 13
35 17 2
35 18 17
35 19 14
35 20 3
35 21 2
35 22 6
35 23 3
35 24 2
35 25 19
35 26 4
35 27 9
35 28 8
35 29 13
35 30 5
35 31 4
35 32 1
35 33 10
35 34 17
36 0 14
36 1 1
36 2 8
36 3 18
36 4 19
36 5 17
36 6 13
36 7 11
36 8 3
36 9 19
36 10 3
36 11 2
36 12 20
36 13 17
36 14 13
36 15 18
36 16 7
36 17 17
36 18 15
36 19 5
36 20 17
36 21 12
36 22 4
36 23 4
36 24 14
36 25 17
36 26 13
36 27 18
36 28 6
36 29 19
36 30 9
36 31 20
36 32 14
36 33 20
36 34 17
36 35 1
37 0 16
37 1 20
37 2 20
37 3 19
37 4 3
37 5 7
37 6 7
37 7 6
37 8 2
37 9 7
37 10 18
37 11 11
37 12 8
37 13 17
37 14 1
37 15 12
37 16 15
37 17 2
37 18 12
37 19 8
37 20 9
37 21 18
37 22 8
37 23 12
37 24 3
37 25 13
37 26 10
37 27 17
37 28 15
37 29 10
37 30 3
37 31 11
37 32 6
37 33 15
37 34 3
37 35 9
37 36 10
38 0 7
38 1 9
38 2 8
38 3 2
38 4 8
38 5 13
38 6 17
38 7 16
38 8 10
38 9 2
38 10 16
38 11 13
38 12 11
38 13 2
38 14 7
38 15 16
38 16 11
38 17 19
38 18 6
38 19 7
38 20 3
38 21 15
38 22 2
38 23 18
38 24 3
38 25 7
38 26 4
38 27 19
38 28 10
38 29 20
38 30 12
38 31 12
38 32 3
38 33 4
38 34 13
38 35 17
38 36 9
38 37 18
39 0 3
39 1 7
39 2 17
39 3 16
39 4 17
39 5 20
39 6 13
39 7 17
39 8 12
39 9 3
39 10 12
39 11 15
39 12 18
39 13 3
39 14 8
39 15 13
39 16 19
39 17 9
39 18 20
39 19 20
39 20 17
39 21 14
39 22 2
39 23 10
39 24 2
39 25 9
39 26 8
39 27 10
39 28 20
39 29 2
39 30 18
39 31 19
39 32 14
39 33 12
39 34 9
39 35 9
39 36 14
39 37 5
39 38 3
